71, 2859
2816, 490
2286, 409
5666, 476
4484, 284
4465, 200
4835, 297
3679, 375
4020, 129
1166, 348
5622, 498
2087, 487
5063, 313
2134, 129
1919, 479
2976, 153
3439, 115
1854, 302
3013, 392
1937, 151
5946, 330
5427, 413
1771, 211
5502, 134
1647, 132
4991, 407
5927, 310
5545, 124
4944, 266
1617, 235
3532, 404
3910, 227
1697, 284
4575, 468
1973, 286
3795, 290
4225, 216
4909, 313
1808, 155
5005, 408
2587, 213
5915, 414
2135, 433
3357, 269
1760, 317
4497, 465
5019, 192
2189, 352
3609, 319
5415, 459
4368, 441
1144, 202
3072, 472
5950, 479
4523, 109
1282, 434
3423, 298
1506, 335
3889, 238
4918, 304
5052, 198
1417, 338
1898, 113
3989, 206
2948, 363
5289, 111
1618, 369
2634, 304
2568, 154
1743, 326
5059, 390
1232, 337